NAME : P-n70-k10.552648.tour
COMMENT : Length = 552648
COMMENT : Found by LKH [Keld Helsgaun] Sun Dec 17 22:38:22 2017
TYPE : TOUR
DIMENSION : 79
TOUR_SECTION
1
7
34
2
44
42
57
24
79
52
17
64
50
25
19
51
26
56
73
69
3
63
29
23
43
65
71
27
47
9
20
15
60
75
8
36
54
12
66
67
77
18
13
59
39
11
32
76
31
49
48
37
70
22
62
72
68
35
53
28
16
58
14
55
74
41
40
10
33
45
4
78
5
46
30
6
38
21
61
-1
EOF
